n_res = 4;
rc = [ 25, 29, 37, 39 ];
n_tasks = 30;
d = [ 10, 2, 5, 7, 2, 7, 9, 6, 3, 9, 9, 4, 10, 5, 6, 5, 5, 7, 10, 6, 5, 4, 9, 1, 2, 2, 10, 8, 4, 3 ];
rr = [| 25, 25, 25, 25, 25, 25, 25, 25, 25, 25, 25, 25, 25, 25, 25, 25, 25, 25, 25, 25, 25, 25, 25, 25, 25, 25, 25, 25, 25, 25
      | 29, 29, 29, 29, 29, 29, 29, 29, 29, 29, 29, 29, 29, 29, 29, 29, 29, 29, 29, 29, 29, 29, 29, 29, 29, 29, 29, 29, 29, 29
      | 37, 37, 37, 37, 37, 37, 37, 37, 37, 37, 37, 37, 37, 37, 37, 37, 37, 37, 37, 37, 37, 37, 37, 37, 37, 37, 37, 37, 37, 37
      | 39, 39, 39, 39, 39, 39, 39, 39, 39, 39, 39, 39, 39, 39, 39, 39, 39, 39, 39, 39, 39, 39, 39, 39, 39, 39, 39, 39, 39, 39|];
suc = [ { 4, 19, 20 },
       { 5, 6, 9 },
       { 14, 26 },
       { 10, 21, 27 },
       { 7, 11, 24 },
       { 12, 13 },
       { 8, 16, 17 },
       { 29 },
       { 22 },
       { 25 },
       { 14, 16 },
       { 15, 18, 28 },
       { 21 },
       { 23 },
       { 22 },
       { 30 },
       { 27 },
       { 25 },
       { 22 },
       { 27 },
       { 29 },
       { 24 },
       { 28 },
       { 30 },
       { 29 },
       { 28 },
       { 30 },
       {  },
       {  },
       {  } ];
